NAME : XML100_1161_20
DIMENSION : 101
NB_CLUSTERS : 22
CLUSTERING_ALG : DBSCAN
CLUSTERING_PARAMS : eps(76), minSamples(3)
CLUSTERS
1 0
2 1 11 74 82
3 2 18 24 34 35 50 65 85
4 3 23 52 62 93
5 5 14 59 80 87
6 7 16 25 90
7 8 38 55 86 96 98
8 9 47 64 71 92 94
9 10 31 73 76 83
10 13 17 29 42 61 67 75 81
11 19 43 46 72 84 99
12 26 28 33 41 56 69 89 97 100
13 39 68 95
14 20 49 58 88
15 40 51 63 66 70 78
16 6 21 32 36 37 57
17 15 44
18 4 12 79
19 27 30 45
20 60 91
21 53 77
22 22 48 54
EOF